data/solutions/planning/wellformed/hard/weighting/wellformed_hard_instance19_gurobi.sol
Elapsed time: 8.8
Nodes explored: 3395
Nodes left: 2546
Relative gap: 0.004
Upper bound: 25748397.0
Lower bound: 25747376
C[0]=25171.0
C[1]=25168.0
C[2]=25168.0
C[3]=25168.0
C[4]=25168.0
C[5]=25168.0
C[6]=25168.0
C[7]=25168.0
C[8]=25167.0
C[9]=25167.0
y[0]=9
y[1]=0
y[2]=7
y[3]=7
y[4]=2
y[5]=7
y[6]=2
y[7]=0
y[8]=8
y[9]=0
y[10]=3
y[11]=3
y[12]=9
y[13]=1
y[14]=0
y[15]=4
y[16]=0
y[17]=7
y[18]=4
y[19]=9
y[20]=3
y[21]=0
y[22]=0
y[23]=9
y[24]=0
y[25]=9
y[26]=9
y[27]=0
y[28]=3
y[29]=0
y[30]=9
y[31]=3
y[32]=1
y[33]=9
y[34]=3
y[35]=0
y[36]=0
y[37]=5
y[38]=4
y[39]=0
y[40]=9
y[41]=1
y[42]=0
y[43]=0
y[44]=4
y[45]=1
y[46]=9
y[47]=6
y[48]=9
y[49]=7
y[50]=1
y[51]=0
y[52]=3
y[53]=3
y[54]=9
y[55]=8
y[56]=8
y[57]=0
y[58]=3
y[59]=6
y[60]=4
y[61]=2
y[62]=9
y[63]=9
y[64]=3
y[65]=9
y[66]=0
y[67]=2
y[68]=7
y[69]=7
y[70]=2
y[71]=1
y[72]=3
y[73]=7
y[74]=8
y[75]=2
y[76]=2
y[77]=1
y[78]=5
y[79]=2
y[80]=6
y[81]=2
y[82]=9
y[83]=0
y[84]=4
y[85]=8
y[86]=6
y[87]=1
y[88]=4
y[89]=4
y[90]=7
y[91]=6
y[92]=8
y[93]=8
y[94]=8
y[95]=1
y[96]=2
y[97]=4
y[98]=5
y[99]=3
y[100]=4
y[101]=3
y[102]=2
y[103]=5
y[104]=2
y[105]=3
y[106]=5
y[107]=4
y[108]=0
y[109]=9
y[110]=2
y[111]=1
y[112]=6
y[113]=3
y[114]=7
y[115]=0
y[116]=5
y[117]=6
y[118]=6
y[119]=8
y[120]=2
y[121]=2
y[122]=2
y[123]=2
y[124]=9
y[125]=3
y[126]=0
y[127]=7
y[128]=8
y[129]=3
y[130]=8
y[131]=5
y[132]=3
y[133]=6
y[134]=4
y[135]=9
y[136]=5
y[137]=5
y[138]=9
y[139]=9
y[140]=7
y[141]=1
y[142]=2
y[143]=5
y[144]=8
y[145]=8
y[146]=7
y[147]=6
y[148]=5
y[149]=8
y[150]=5
y[151]=4
y[152]=6
y[153]=1
y[154]=2
y[155]=1
y[156]=7
y[157]=2
y[158]=3
y[159]=9
y[160]=4
y[161]=4
y[162]=0
y[163]=9
y[164]=7
y[165]=4
y[166]=5
y[167]=9
y[168]=6
y[169]=3
y[170]=3
y[171]=7
y[172]=1
y[173]=8
y[174]=8
y[175]=3
y[176]=1
y[177]=4
y[178]=6
y[179]=5
y[180]=4
y[181]=9
y[182]=2
y[183]=5
y[184]=6
y[185]=5
y[186]=1
y[187]=5
y[188]=5
y[189]=5
y[190]=8
y[191]=6
y[192]=4
y[193]=0
y[194]=1
y[195]=3
y[196]=7
y[197]=9
y[198]=3
y[199]=2
y[200]=2
y[201]=7
y[202]=4
y[203]=3
y[204]=2
y[205]=7
y[206]=9
y[207]=6
y[208]=2
y[209]=8
y[210]=7
y[211]=6
y[212]=0
y[213]=1
y[214]=9
y[215]=8
y[216]=3
y[217]=1
y[218]=7
y[219]=8
y[220]=6
y[221]=9
y[222]=7
y[223]=3
y[224]=9
y[225]=8
y[226]=7
y[227]=7
y[228]=9
y[229]=2
y[230]=4
y[231]=1
y[232]=4
y[233]=1
y[234]=7
y[235]=2
y[236]=5
y[237]=8
y[238]=1
y[239]=8
y[240]=7
y[241]=0
y[242]=7
y[243]=6
y[244]=8
y[245]=9
y[246]=7
y[247]=2
y[248]=2
y[249]=4
y[250]=2
y[251]=2
y[252]=6
y[253]=4
y[254]=3
y[255]=8
y[256]=1
y[257]=2
y[258]=7
y[259]=9
y[260]=1
y[261]=6
y[262]=5
y[263]=3
y[264]=3
y[265]=1
y[266]=3
y[267]=6
y[268]=8
y[269]=1
y[270]=1
y[271]=2
y[272]=1
y[273]=3
y[274]=7
y[275]=0
y[276]=6
y[277]=2
y[278]=5
y[279]=2
y[280]=9
y[281]=9
y[282]=7
y[283]=0
y[284]=6
y[285]=6
y[286]=9
y[287]=5
y[288]=4
y[289]=8
y[290]=7
y[291]=8
y[292]=1
y[293]=4
y[294]=9
y[295]=0
y[296]=6
y[297]=7
y[298]=2
y[299]=4
y[300]=1
y[301]=6
y[302]=8
y[303]=5
y[304]=7
y[305]=9
y[306]=5
y[307]=2
y[308]=6
y[309]=6
y[310]=5
y[311]=0
y[312]=5
y[313]=1
y[314]=8
y[315]=3
y[316]=7
y[317]=4
y[318]=4
y[319]=1
y[320]=3
y[321]=7
y[322]=8
y[323]=2
y[324]=5
y[325]=0
y[326]=8
y[327]=7
y[328]=2
y[329]=3
y[330]=8
y[331]=3
y[332]=3
y[333]=2
y[334]=3
y[335]=4
y[336]=4
y[337]=0
y[338]=5
y[339]=1
y[340]=1
y[341]=7
y[342]=1
y[343]=3
y[344]=4
y[345]=8
y[346]=4
y[347]=6
y[348]=6
y[349]=9
y[350]=7
y[351]=5
y[352]=4
y[353]=7
y[354]=7
y[355]=6
y[356]=4
y[357]=5
y[358]=7
y[359]=2
y[360]=5
y[361]=3
y[362]=2
y[363]=9
y[364]=1
y[365]=4
y[366]=1
y[367]=8
y[368]=5
y[369]=9
y[370]=8
y[371]=8
y[372]=4
y[373]=7
y[374]=9
y[375]=3
y[376]=1
y[377]=5
y[378]=5
y[379]=8
y[380]=0
y[381]=0
y[382]=0
y[383]=0
y[384]=0
y[385]=0
y[386]=7
y[387]=0
y[388]=0
y[389]=0
y[390]=0
y[391]=0
y[392]=0
y[393]=0
y[394]=3
y[395]=6
y[396]=7
y[397]=7
y[398]=0
y[399]=1
y[400]=0
y[401]=0
y[402]=0
y[403]=7
y[404]=7
y[405]=0
y[406]=0
y[407]=7
y[408]=9
y[409]=3
y[410]=4
y[411]=2
y[412]=2
y[413]=4
y[414]=5
y[415]=4
y[416]=7
y[417]=6
y[418]=1
y[419]=7
y[420]=5
y[421]=4
y[422]=7
y[423]=3
y[424]=0
y[425]=0
y[426]=6
y[427]=0
y[428]=3
y[429]=0
y[430]=3
y[431]=0
y[432]=0
y[433]=0
y[434]=0
y[435]=0
y[436]=7
y[437]=8
y[438]=4
y[439]=5
y[440]=9
y[441]=1
y[442]=6
y[443]=4
y[444]=2
y[445]=4
y[446]=4
y[447]=9
y[448]=5
y[449]=9
y[450]=1
y[451]=7
y[452]=7
y[453]=8
y[454]=8
y[455]=7
y[456]=9
y[457]=4
y[458]=3
y[459]=6
y[460]=6
y[461]=4
y[462]=9
y[463]=1
y[464]=4
y[465]=4
y[466]=2
y[467]=9
y[468]=7
y[469]=7
y[470]=4
y[471]=3
y[472]=9
y[473]=4
y[474]=1
y[475]=9
y[476]=5
y[477]=8
y[478]=2
y[479]=8
y[480]=6
y[481]=3
y[482]=0
y[483]=2
y[484]=1
y[485]=5
y[486]=4
y[487]=7
y[488]=6
y[489]=1
y[490]=4
y[491]=8
y[492]=1
y[493]=5
y[494]=3
y[495]=7
y[496]=8
y[497]=2
y[498]=5
y[499]=5
