data/solutions/planning/wellformed/hard/weighting/wellformed_hard_instance19_gurobi.log

Gurobi 6.5.2 (linux64) logging started Sat Mar  3 20:11:28 2018

Changed value of parameter LogFile to data/solutions/planning/wellformed/hard/weighting/wellformed_hard_instance19_gurobi.log
   Prev: gurobi.log  Default: 
Changed value of parameter Threads to 1
   Prev: 0  Min: 0  Max: 1024  Default: 0
Optimize a model with 520 rows, 5011 columns and 10029 nonzeros
Coefficient statistics:
  Matrix range    [1e+00, 1e+03]
  Objective range [1e+00, 5e+02]
  Bounds range    [1e+00, 1e+00]
  RHS range       [1e+00, 1e+00]
Found heuristic solution: objective 3.4048e+07
Presolve removed 3 rows and 3 columns
Presolve time: 0.01s
Presolved: 517 rows, 5008 columns, 10024 nonzeros
Variable types: 0 continuous, 5008 integer (5000 binary)

Root relaxation: objective 2.574697e+07, 704 iterations, 0.01 seconds

    Nodes    |    Current Node    |     Objective Bounds      |     Work
 Expl Unexpl |  Obj  Depth IntInf | Incumbent    BestBd   Gap | It/Node Time

     0     0 2.5747e+07    0   20 3.4048e+07 2.5747e+07  24.4%     -    0s
H    0     0                    2.599983e+07 2.5747e+07  0.97%     -    0s
H    0     0                    2.587415e+07 2.5747e+07  0.49%     -    0s
     0     0 2.5747e+07    0   36 2.5874e+07 2.5747e+07  0.49%     -    0s
     0     0 2.5747e+07    0   36 2.5874e+07 2.5747e+07  0.49%     -    0s
     0     0 2.5747e+07    0   40 2.5874e+07 2.5747e+07  0.49%     -    0s
     0     0 2.5747e+07    0   29 2.5874e+07 2.5747e+07  0.49%     -    0s
     0     2 2.5747e+07    0   25 2.5874e+07 2.5747e+07  0.49%     -    0s
H   27    27                    2.583701e+07 2.5747e+07  0.35%  21.6    0s
H   54    52                    2.583447e+07 2.5747e+07  0.34%  12.1    0s
H  233   231                    2.583158e+07 2.5747e+07  0.33%   4.3    0s
H  355   353                    2.580728e+07 2.5747e+07  0.23%   3.9    1s
H  515   513                    2.580474e+07 2.5747e+07  0.22%   3.4    1s
H  677   675                    2.580470e+07 2.5747e+07  0.22%   3.3    1s
H  993   963                    2.580470e+07 2.5747e+07  0.22%   4.6    2s
H  997   942                    2.575552e+07 2.5747e+07  0.03%   4.7    2s
  1669  1605 2.5747e+07   16   23 2.5756e+07 2.5747e+07  0.03%  14.0    5s
H 2813  2283                    2.575141e+07 2.5747e+07  0.02%  10.5    7s
H 3395  2546                    2.574840e+07 2.5747e+07  0.00%  10.0    8s

Cutting planes:
  Gomory: 1
  MIR: 3
  Flow cover: 3

Explored 3395 nodes (36368 simplex iterations) in 8.70 seconds
Thread count was 1 (of 8 available processors)

Optimal solution found (tolerance 1.00e-04)
Best objective 2.574839700000e+07, best bound 2.574737600000e+07, gap 0.0040%
